NAME : HWGrid506
COMMENT : Artificial problem
DIMENSION : 506
EDGE_WEIGHT_TYPE : EUC_2D
NODE_COORD_SECTION
   1    100.0    100.0
   2    200.0    100.0
   3    100.0    200.0
   4    200.0    200.0
   5    100.0    300.0
   6    200.0    300.0
   7    100.0    400.0
   8    200.0    400.0
   9    100.0    500.0
  10    200.0    500.0
  11    100.0    600.0
  12    200.0    600.0
  13    100.0    700.0
  14    200.0    700.0
  15    100.0    800.0
  16    200.0    800.0
  17    100.0    900.0
  18    200.0    900.0
  19    100.0   1000.0
  20    200.0   1000.0
  21    100.0   1100.0
  22    200.0   1100.0
  23    100.0   1200.0
  24    200.0   1200.0
  25    100.0   1300.0
  26    200.0   1300.0
  27    100.0   1400.0
  28    200.0   1400.0
  29    100.0   1500.0
  30    200.0   1500.0
  31    100.0   1600.0
  32    200.0   1600.0
  33    100.0   1700.0
  34    200.0   1700.0
  35    100.0   1800.0
  36    200.0   1800.0
  37    100.0   1900.0
  38    200.0   1900.0
  39    100.0   2000.0
  40    200.0   2000.0
  41    100.0   2100.0
  42    200.0   2100.0
  43    100.0   2200.0
  44    200.0   2200.0
  45    100.0   2300.0
  46    200.0   2300.0
  47    100.0   2400.0
  48    200.0   2400.0
  49    100.0   2500.0
  50    200.0   2500.0
  51    100.0   2600.0
  52    200.0   2600.0
  53    100.0   2700.0
  54    200.0   2700.0
  55    100.0   2800.0
  56    200.0   2800.0
  57    100.0   2900.0
  58    200.0   2900.0
  59    100.0   3000.0
  60    200.0   3000.0
  61    100.0   3100.0
  62    200.0   3100.0
  63    100.0   3200.0
  64    200.0   3200.0
  65    100.0   3300.0
  66    200.0   3300.0
  67    100.0   3400.0
  68    200.0   3400.0
  69    100.0   3500.0
  70    200.0   3500.0
  71    100.0   3600.0
  72    200.0   3600.0
  73    100.0   3700.0
  74    200.0   3700.0
  75    100.0   3800.0
  76    200.0   3800.0
  77    100.0   3900.0
  78    200.0   3900.0
  79    100.0   4000.0
  80    200.0   4000.0
  81    100.0   4100.0
  82    200.0   4100.0
  83    100.0   4200.0
  84    200.0   4200.0
  85    100.0   4300.0
  86    200.0   4300.0
  87    100.0   4400.0
  88    200.0   4400.0
  89    100.0   4500.0
  90    200.0   4500.0
  91    100.0   4600.0
  92    200.0   4600.0
  93    100.0   4700.0
  94    200.0   4700.0
  95    100.0   4800.0
  96    200.0   4800.0
  97    100.0   4900.0
  98    200.0   4900.0
  99    100.0   5000.0
 100    200.0   5000.0
 101    100.0   5100.0
 102    200.0   5100.0
 103    100.0   5200.0
 104    200.0   5200.0
 105    100.0   5300.0
 106    200.0   5300.0
 107    100.0   5400.0
 108    200.0   5400.0
 109    100.0   5500.0
 110    200.0   5500.0
 111    100.0   5600.0
 112    200.0   5600.0
 113    100.0   5700.0
 114    200.0   5700.0
 115    100.0   5800.0
 116    200.0   5800.0
 117    100.0   5900.0
 118    200.0   5900.0
 119    100.0   6000.0
 120    200.0   6000.0
 121    100.0   6100.0
 122    200.0   6100.0
 123    100.0   6200.0
 124    200.0   6200.0
 125    100.0   6300.0
 126    200.0   6300.0
 127    100.0   6400.0
 128    200.0   6400.0
 129    100.0   6500.0
 130    200.0   6500.0
 131    100.0   6600.0
 132    200.0   6600.0
 133    100.0   6700.0
 134    200.0   6700.0
 135    100.0   6800.0
 136    200.0   6800.0
 137    100.0   6900.0
 138    200.0   6900.0
 139    100.0   7000.0
 140    200.0   7000.0
 141    100.0   7100.0
 142    200.0   7100.0
 143    100.0   7200.0
 144    200.0   7200.0
 145    100.0   7300.0
 146    200.0   7300.0
 147    100.0   7400.0
 148    200.0   7400.0
 149    100.0   7500.0
 150    200.0   7500.0
 151    100.0   7600.0
 152    200.0   7600.0
 153    100.0   7700.0
 154    200.0   7700.0
 155    100.0   7800.0
 156    200.0   7800.0
 157    100.0   7900.0
 158    200.0   7900.0
 159    100.0   8000.0
 160    200.0   8000.0
 161    100.0   8100.0
 162    200.0   8100.0
 163    100.0   8200.0
 164    200.0   8200.0
 165    100.0   8300.0
 166    200.0   8300.0
 167    100.0   8400.0
 168    200.0   8400.0
 169    100.0   8500.0
 170    200.0   8500.0
 171    100.0   8600.0
 172    200.0   8600.0
 173    100.0   8700.0
 174    200.0   8700.0
 175    100.0   8800.0
 176    200.0   8800.0
 177    100.0   8900.0
 178    200.0   8900.0
 179    100.0   9000.0
 180    200.0   9000.0
 181    100.0   9100.0
 182    200.0   9100.0
 183    100.0   9200.0
 184    200.0   9200.0
 185    100.0   9300.0
 186    200.0   9300.0
 187    100.0   9400.0
 188    200.0   9400.0
 189    100.0   9500.0
 190    200.0   9500.0
 191    100.0   9600.0
 192    200.0   9600.0
 193    100.0   9700.0
 194    200.0   9700.0
 195    100.0   9800.0
 196    200.0   9800.0
 197    100.0   9900.0
 198    200.0   9900.0
 199    100.0  10000.0
 200    200.0  10000.0
 201    100.0  10100.0
 202    200.0  10100.0
 203    100.0  10200.0
 204    200.0  10200.0
 205    100.0  10300.0
 206    200.0  10300.0
 207    100.0  10400.0
 208    200.0  10400.0
 209    100.0  10500.0
 210    200.0  10500.0
 211    100.0  10600.0
 212    200.0  10600.0
 213    100.0  10700.0
 214    200.0  10700.0
 215    100.0  10800.0
 216    200.0  10800.0
 217    100.0  10900.0
 218    200.0  10900.0
 219    100.0  11000.0
 220    200.0  11000.0
 221    100.0  11100.0
 222    200.0  11100.0
 223    100.0  11200.0
 224    200.0  11200.0
 225    100.0  11300.0
 226    200.0  11300.0
 227    100.0  11400.0
 228    200.0  11400.0
 229    100.0  11500.0
 230    200.0  11500.0
 231    100.0  11600.0
 232    200.0  11600.0
 233    100.0  11700.0
 234    200.0  11700.0
 235    100.0  11800.0
 236    200.0  11800.0
 237    100.0  11900.0
 238    200.0  11900.0
 239    100.0  12000.0
 240    200.0  12000.0
 241    100.0  12100.0
 242    200.0  12100.0
 243    100.0  12200.0
 244    200.0  12200.0
 245    100.0  12300.0
 246    200.0  12300.0
 247    100.0  12400.0
 248    200.0  12400.0
 249    100.0  12500.0
 250    200.0  12500.0
 251    100.0  12600.0
 252    200.0  12600.0
 253    100.0  12700.0
 254    200.0  12700.0
 255    100.0  12800.0
 256    200.0  12800.0
 257    100.0  12900.0
 258    200.0  12900.0
 259    100.0  13000.0
 260    200.0  13000.0
 261    100.0  13100.0
 262    200.0  13100.0
 263    100.0  13200.0
 264    200.0  13200.0
 265    100.0  13300.0
 266    200.0  13300.0
 267    100.0  13400.0
 268    200.0  13400.0
 269    100.0  13500.0
 270    200.0  13500.0
 271    100.0  13600.0
 272    200.0  13600.0
 273    100.0  13700.0
 274    200.0  13700.0
 275    100.0  13800.0
 276    200.0  13800.0
 277    100.0  13900.0
 278    200.0  13900.0
 279    100.0  14000.0
 280    200.0  14000.0
 281    100.0  14100.0
 282    200.0  14100.0
 283    100.0  14200.0
 284    200.0  14200.0
 285    100.0  14300.0
 286    200.0  14300.0
 287    100.0  14400.0
 288    200.0  14400.0
 289    100.0  14500.0
 290    200.0  14500.0
 291    100.0  14600.0
 292    200.0  14600.0
 293    100.0  14700.0
 294    200.0  14700.0
 295    100.0  14800.0
 296    200.0  14800.0
 297    100.0  14900.0
 298    200.0  14900.0
 299    100.0  15000.0
 300    200.0  15000.0
 301    100.0  15100.0
 302    200.0  15100.0
 303    100.0  15200.0
 304    200.0  15200.0
 305    100.0  15300.0
 306    200.0  15300.0
 307    100.0  15400.0
 308    200.0  15400.0
 309    100.0  15500.0
 310    200.0  15500.0
 311    100.0  15600.0
 312    200.0  15600.0
 313    100.0  15700.0
 314    200.0  15700.0
 315    100.0  15800.0
 316    200.0  15800.0
 317    100.0  15900.0
 318    200.0  15900.0
 319    100.0  16000.0
 320    200.0  16000.0
 321    100.0  16100.0
 322    200.0  16100.0
 323    100.0  16200.0
 324    200.0  16200.0
 325    100.0  16300.0
 326    200.0  16300.0
 327    100.0  16400.0
 328    200.0  16400.0
 329    100.0  16500.0
 330    200.0  16500.0
 331    100.0  16600.0
 332    200.0  16600.0
 333    100.0  16700.0
 334    200.0  16700.0
 335    100.0  16800.0
 336    200.0  16800.0
 337    100.0  16900.0
 338    200.0  16900.0
 339    100.0  17000.0
 340    200.0  17000.0
 341    100.0  17100.0
 342    200.0  17100.0
 343    100.0  17200.0
 344    200.0  17200.0
 345    100.0  17300.0
 346    200.0  17300.0
 347    100.0  17400.0
 348    200.0  17400.0
 349    100.0  17500.0
 350    200.0  17500.0
 351    100.0  17600.0
 352    200.0  17600.0
 353    100.0  17700.0
 354    200.0  17700.0
 355    100.0  17800.0
 356    200.0  17800.0
 357    100.0  17900.0
 358    200.0  17900.0
 359    100.0  18000.0
 360    200.0  18000.0
 361    100.0  18100.0
 362    200.0  18100.0
 363    100.0  18200.0
 364    200.0  18200.0
 365    100.0  18300.0
 366    200.0  18300.0
 367    100.0  18400.0
 368    200.0  18400.0
 369    100.0  18500.0
 370    200.0  18500.0
 371    100.0  18600.0
 372    200.0  18600.0
 373    100.0  18700.0
 374    200.0  18700.0
 375    100.0  18800.0
 376    200.0  18800.0
 377    100.0  18900.0
 378    200.0  18900.0
 379    100.0  19000.0
 380    200.0  19000.0
 381    100.0  19100.0
 382    200.0  19100.0
 383    100.0  19200.0
 384    200.0  19200.0
 385    100.0  19300.0
 386    200.0  19300.0
 387    100.0  19400.0
 388    200.0  19400.0
 389    100.0  19500.0
 390    200.0  19500.0
 391    100.0  19600.0
 392    200.0  19600.0
 393    100.0  19700.0
 394    200.0  19700.0
 395    100.0  19800.0
 396    200.0  19800.0
 397    100.0  19900.0
 398    200.0  19900.0
 399    100.0  20000.0
 400    200.0  20000.0
 401    100.0  20100.0
 402    200.0  20100.0
 403    100.0  20200.0
 404    200.0  20200.0
 405    100.0  20300.0
 406    200.0  20300.0
 407    100.0  20400.0
 408    200.0  20400.0
 409    100.0  20500.0
 410    200.0  20500.0
 411    100.0  20600.0
 412    200.0  20600.0
 413    100.0  20700.0
 414    200.0  20700.0
 415    100.0  20800.0
 416    200.0  20800.0
 417    100.0  20900.0
 418    200.0  20900.0
 419    100.0  21000.0
 420    200.0  21000.0
 421    100.0  21100.0
 422    200.0  21100.0
 423    100.0  21200.0
 424    200.0  21200.0
 425    100.0  21300.0
 426    200.0  21300.0
 427    100.0  21400.0
 428    200.0  21400.0
 429    100.0  21500.0
 430    200.0  21500.0
 431    100.0  21600.0
 432    200.0  21600.0
 433    100.0  21700.0
 434    200.0  21700.0
 435    100.0  21800.0
 436    200.0  21800.0
 437    100.0  21900.0
 438    200.0  21900.0
 439    100.0  22000.0
 440    200.0  22000.0
 441    100.0  22100.0
 442    200.0  22100.0
 443    100.0  22200.0
 444    200.0  22200.0
 445    100.0  22300.0
 446    200.0  22300.0
 447    100.0  22400.0
 448    200.0  22400.0
 449    100.0  22500.0
 450    200.0  22500.0
 451    100.0  22600.0
 452    200.0  22600.0
 453    100.0  22700.0
 454    200.0  22700.0
 455    100.0  22800.0
 456    200.0  22800.0
 457    100.0  22900.0
 458    200.0  22900.0
 459    100.0  23000.0
 460    200.0  23000.0
 461    100.0  23100.0
 462    200.0  23100.0
 463    100.0  23200.0
 464    200.0  23200.0
 465    100.0  23300.0
 466    200.0  23300.0
 467    100.0  23400.0
 468    200.0  23400.0
 469    100.0  23500.0
 470    200.0  23500.0
 471    100.0  23600.0
 472    200.0  23600.0
 473    100.0  23700.0
 474    200.0  23700.0
 475    100.0  23800.0
 476    200.0  23800.0
 477    100.0  23900.0
 478    200.0  23900.0
 479    100.0  24000.0
 480    200.0  24000.0
 481    100.0  24100.0
 482    200.0  24100.0
 483    100.0  24200.0
 484    200.0  24200.0
 485    100.0  24300.0
 486    200.0  24300.0
 487    100.0  24400.0
 488    200.0  24400.0
 489    100.0  24500.0
 490    200.0  24500.0
 491    100.0  24600.0
 492    200.0  24600.0
 493    100.0  24700.0
 494    200.0  24700.0
 495    100.0  24800.0
 496    200.0  24800.0
 497    100.0  24900.0
 498    200.0  24900.0
 499    100.0  25000.0
 500    200.0  25000.0
 501    100.0  25100.0
 502    200.0  25100.0
 503    100.0  25200.0
 504    200.0  25200.0
 505    100.0  25300.0
 506    200.0  25300.0

